problems/GracefulGears/GracefulGears-models/noch/O2/minion/model-n08-solution000001.eprime-solution
language ESSENCE' 1.0

letting colour_Function1D be [0, 1, 3, 6, 2, 7, 13, 20, 4, 17, 9, 19, 10, 22, 5, 23, 24; int(0..16)]
letting edgeID_Function1D be
        [1, 2, 3, 4, 5, 6, 7, 16, 13, 8, 10, 9, 12, 17, 18, 23, 24, 21, 22, 11, 20, 15, 14, 19; int(0..23)]
