problems/GracefulGears/GracefulGears-models/noch/O2/minion/model-n08-solution000001.solution
language Essence 1.3

letting colour be
        function(0 --> 0, 1 --> 1, 2 --> 3, 3 --> 6, 4 --> 2, 5 --> 7, 6 --> 13, 7 --> 20, 8 --> 4, 9 --> 17, 10 --> 9,
                 11 --> 19, 12 --> 10, 13 --> 22, 14 --> 5, 15 --> 23, 16 --> 24)
letting edgeID be
        function(0 --> 1, 1 --> 2, 2 --> 3, 3 --> 4, 4 --> 5, 5 --> 6, 6 --> 7, 7 --> 16, 8 --> 13, 9 --> 8, 10 --> 10,
                 11 --> 9, 12 --> 12, 13 --> 17, 14 --> 18, 15 --> 23, 16 --> 24, 17 --> 21, 18 --> 22, 19 --> 11,
                 20 --> 20, 21 --> 15, 22 --> 14, 23 --> 19)
